c This Formular is generated by mcnf
c
c    horn? no 
c    forced? no 
c    mixed sat? no 
c    clause length = 3 
c
p cnf 20  91 
 6 8 -11 0
-11 1 2 0
-5 3 17 0
16 10 -14 0
18 -8 11 0
-6 19 -12 0
-12 -16 18 0
-17 -9 -14 0
7 6 13 0
-5 15 16 0
-19 -8 13 0
-6 -9 -7 0
16 -1 10 0
-14 -3 1 0
-5 -6 2 0
16 -2 14 0
-16 2 10 0
-11 17 4 0
8 -17 -3 0
-15 -1 -18 0
-18 14 13 0
15 -18 9 0
6 2 -7 0
-9 8 12 0
12 5 -2 0
-5 -16 -7 0
-11 16 -2 0
1 -10 19 0
18 -20 17 0
-14 -8 6 0
-9 -1 4 0
9 7 18 0
2 1 15 0
10 -8 -4 0
-7 10 8 0
20 14 -4 0
6 17 7 0
9 -8 4 0
18 5 -12 0
10 -12 19 0
1 -11 6 0
%
0

39 35 41 2 66 24 82 15 25 83 23 94 71 6 48 5 78 66 93 16
